317485.0
2160
2 4 5 6 7 9 10 14 15 16 18 20 21 24 27 28 29 30 32 33 34 35 37 39 45 46 47 50 51 52 54 55 57 58 59 60 61 62 66 67 69 70 72 74 76 77 78 79 82 84 85 87 93 97 98 100 101 102 104 109 111 113 115 117 119 120 122 125 131 132 134 135 136 137 142 143 147 149 151 156 157 161 163 164 165 166 167 171 172 174 175 179 182 187 189 193 194 195 196 198 